Mack/Bortfeldt(2008)
Bin-Packing-Problem
BP-RG/SBSBPP/SSSCSP
Testcase-ID	9
Problem-ID	39
no_item_types	10
no_items	1541
CONTAINER_DATA (l,w,h)	432	79	1
ITEMS_DATA:
Type	x	y	z	no_items
1	45	35	1	167
2	38	27	1	158
3	46	22	1	150
4	35	28	1	163
5	47	19	1	161
6	30	27	1	146
7	34	22	1	144
8	44	13	1	145
9	39	14	1	139
10	26	18	1	168
